# Farmer Jones' decision

set Crops := corn wheat;

param Yield := corn 10 wheat 25;
param Labor := corn 4 wheat 10;
param Price := corn 3 wheat 4;
param Min_Crop := corn 30 wheat 0;

param Max_Acres := 7;
param Max_Hours :=40;




